(set-info :origin "driver benchmark extracted from Microsoft SDV")
(set-logic HORN)
(declare-fun Proc13
             (Int (Array Int Int) (Array Int Int) Int Int Bool Int Int Int Int)
             Bool)
(declare-fun Proc9
             (Int (Array Int Int) (Array Int Int) Int Int Bool Int Int Int Int)
             Bool)
(declare-fun Proc22
             (Int (Array Int Int) (Array Int Int) Int Int Bool Int Int)
             Bool)
(declare-fun Proc7
             (Int (Array Int Int) (Array Int Int) Int Int Bool Int Int)
             Bool)
(declare-fun Proc15
             (Int (Array Int Int) (Array Int Int) Int Int Bool Int Int)
             Bool)
(declare-fun Proc32 (Int (Array Int Int) (Array Int Int) Int Int Bool Int) Bool)
(declare-fun Proc4 (Int (Array Int Int) (Array Int Int) Int Int Bool Int) Bool)
(declare-fun Proc34 (Int (Array Int Int) (Array Int Int) Int Int Bool Int) Bool)
(declare-fun Proc28 (Int (Array Int Int) (Array Int Int) Int Int Bool Int) Bool)
(declare-fun Proc8
             (Int (Array Int Int) (Array Int Int) Int Int Bool Int Int)
             Bool)
(declare-fun Proc26 (Int (Array Int Int) (Array Int Int) Int Int Bool Int) Bool)
(declare-fun Proc23 (Int (Array Int Int) (Array Int Int) Int Int Bool Int) Bool)
(declare-fun Proc42
             (Int
              (Array Int Int)
              (Array Int Int)
              Int
              Int
              Bool
              Int
              Int
              Int
              (Array Int Int)
              Int
              Int)
             Bool)
(declare-fun Proc30 (Int (Array Int Int) (Array Int Int) Int Int Bool Int) Bool)
(declare-fun Proc40 (Int (Array Int Int) (Array Int Int) Int Int Bool) Bool)
(declare-fun Proc20 (Int (Array Int Int) (Array Int Int) Int Int Bool) Bool)
(declare-fun Proc3
             (Int (Array Int Int) (Array Int Int) Int Int Bool Int Int Int)
             Bool)
(declare-fun Proc18
             (Int (Array Int Int) (Array Int Int) Int Int Bool Int Int)
             Bool)
(declare-fun Proc36 (Int (Array Int Int) (Array Int Int) Int Int Bool Int) Bool)
(declare-fun Proc29 (Int (Array Int Int) (Array Int Int) Int Int Bool Int) Bool)
(declare-fun Proc33 (Int (Array Int Int) (Array Int Int) Int Int Bool Int) Bool)
(declare-fun Proc41
             (Int (Array Int Int) (Array Int Int) Int Int Bool Int Int Int Int)
             Bool)
(declare-fun Proc5
             (Int (Array Int Int) (Array Int Int) Int Int Bool Int Int Int)
             Bool)
(declare-fun Proc37 (Int (Array Int Int) (Array Int Int) Int Int Bool Int) Bool)
(declare-fun Proc43 (Int (Array Int Int) (Array Int Int) Int Int Bool) Bool)
(declare-fun Proc24
             (Int
              (Array Int Int)
              (Array Int Int)
              Int
              Int
              Bool
              (Array Int Int)
              Int
              Int)
             Bool)
(declare-fun Proc0 (Int (Array Int Int) (Array Int Int) Int Int Bool Int) Bool)
(declare-fun Proc17 (Int (Array Int Int) (Array Int Int) Int Int Bool Int) Bool)
(declare-fun Proc27 (Int (Array Int Int) (Array Int Int) Int Int Bool Int) Bool)
(declare-fun Proc25
             (Int
              (Array Int Int)
              (Array Int Int)
              Int
              Int
              Bool
              Int
              Int
              Int
              (Array Int Int)
              Bool
              Int
              (Array Int Int))
             Bool)
(declare-fun Proc12
             (Int (Array Int Int) (Array Int Int) Int Int Bool Int Int Int Int)
             Bool)
(declare-fun Proc6 (Int (Array Int Int) (Array Int Int) Int Int Bool) Bool)
(declare-fun Proc39 (Int (Array Int Int) (Array Int Int) Int Int Bool Int) Bool)
(declare-fun Proc16
             (Int (Array Int Int) (Array Int Int) Int Int Bool Int Int)
             Bool)
(declare-fun Proc14
             (Int (Array Int Int) (Array Int Int) Int Int Bool Int Int Int Int)
             Bool)
(declare-fun Proc44
             (Int
              (Array Int Int)
              (Array Int Int)
              Int
              Int
              Bool
              Int
              Bool
              Int
              Int
              (Array Int Int)
              Int
              (Array Int Int))
             Bool)
(declare-fun Proc11
             (Int (Array Int Int) (Array Int Int) Int Int Bool Int Int)
             Bool)
(declare-fun Proc10
             (Int (Array Int Int) (Array Int Int) Int Int Bool Int Int)
             Bool)
(declare-fun Proc35 (Int (Array Int Int) (Array Int Int) Int Int Bool Int) Bool)
(declare-fun Proc1
             (Int (Array Int Int) (Array Int Int) Int Int Bool Int Int Int Int)
             Bool)
(declare-fun Proc21 (Int (Array Int Int) (Array Int Int) Int Int Bool) Bool)
(declare-fun Proc31 (Int (Array Int Int) (Array Int Int) Int Int Bool Int) Bool)
(declare-fun Proc2
             (Int (Array Int Int) (Array Int Int) Int Int Bool Int Int)
             Bool)
(declare-fun Proc19
             (Int (Array Int Int) (Array Int Int) Int Int Bool Int Int)
             Bool)
(declare-fun Proc38 (Int (Array Int Int) (Array Int Int) Int Int Bool Int) Bool)
(assert (forall ((A Int)
         (B Int)
         (C Int)
         (D (Array Int Int))
         (E (Array Int Int))
         (F Int)
         (G Bool))
  (=> G (Proc0 F E D C B G A))))
(assert (forall ((A Int)
         (B Int)
         (C Int)
         (D (Array Int Int))
         (E (Array Int Int))
         (F Int)
         (G Bool)
         (H Int)
         (I Int)
         (J Int)
         (K Int))
  (let ((a!1 (not (or (not G) (not (= K J))))))
    (=> a!1 (Proc1 I E D H F G C B A K)))))
(assert (forall ((A Int)
         (B Int)
         (C Int)
         (D (Array Int Int))
         (E (Array Int Int))
         (F Int)
         (G Bool)
         (H Int)
         (I Int)
         (J Int)
         (K Int)
         (L Int))
  (let ((a!1 (and (not (<= J (+ 1 L))) (not (<= J K)))))
  (let ((a!2 (or (not G)
                 (not (= L K))
                 (not a!1)
                 (not (Proc2 J E D I H G L F))
                 (not (and (= C J) (= B F))))))
    (=> (not a!2) (Proc3 K E D I H G A C B))))))
(assert (forall ((A Int)
         (B Int)
         (C Int)
         (D (Array Int Int))
         (E (Array Int Int))
         (F Int)
         (G Bool)
         (H Int))
  (let ((a!1 (not (or (not G) (not (= H 1))))))
    (=> a!1 (Proc2 F E D C B G A H)))))
(assert (forall ((A Int)
         (B Int)
         (C Int)
         (D (Array Int Int))
         (E (Array Int Int))
         (F Int)
         (G Bool))
  (=> false (Proc4 F E D C B G A))))
(assert (forall ((A Int)
         (B Int)
         (C Int)
         (D (Array Int Int))
         (E (Array Int Int))
         (F Int)
         (G Bool)
         (H Int)
         (I Int)
         (J Int)
         (K Int)
         (L Int)
         (M Int)
         (N Int)
         (O Int))
  (let ((a!1 (or (not (= J 1))
                 (not (and (= I K) (= H J)))
                 (not (and (= F I) (= C H)))))
        (a!2 (or (= J 1)
                 (not (and (= I K) (= H J)))
                 (not (and (= F I) (= C H)))))
        (a!3 (and (not (<= A (+ 1 B))) (not (<= A N)))))
  (let ((a!4 (or (not (= O 0))
                 (not (= B N))
                 (not a!3)
                 (not (Proc4 A E D O M G B))
                 (not (and (= I A) (= H M)))
                 (not (and (= F I) (= C H))))))
  (let ((a!5 (and (or (= O 0) (not (Proc3 N E D O M G L K J)) (and a!1 a!2))
                  a!4)))
    (=> (not (or (not G) a!5)) (Proc5 N E D O M G L F C)))))))
(assert (forall ((A Int)
         (B Int)
         (C Int)
         (D (Array Int Int))
         (E (Array Int Int))
         (F Int)
         (G Bool)
         (H Int)
         (I Int)
         (J Int)
         (K Int)
         (L Int)
         (M Int)
         (N Int)
         (O Int)
         (P Int)
         (Q Int)
         (R Int)
         (S Int)
         (T Int)
         (U Int)
         (V Int)
         (W Int)
         (X Int)
         (Y Int)
         (Z Int)
         (A1 Int))
  (let ((a!1 (not (Proc9 A1 E D Z Y G X U S R)))
        (a!2 (not (Proc10 Q E D Z Y G W O)))
        (a!5 (not (Proc11 A1 E D Z Y G U 0)))
        (a!10 (or (not (Proc13 A1 E D Z Y G W U F C))
                  (not (and (= N C) (= M F)))
                  (not (and (= L M) (= K N))))))
  (let ((a!3 (or (not (= (select D T) 3))
                 a!1
                 (not (and (= Q R) (= P S)))
                 a!2
                 (not (and (= N Q) (= M P)))
                 (not (and (= L M) (= K N)))))
        (a!4 (or (not (= (select D T) 4))
                 a!1
                 (not (and (= Q R) (= P S)))
                 a!2
                 (not (and (= N Q) (= M P)))
                 (not (and (= L M) (= K N)))))
        (a!6 (or (= (select D T) 14)
                 (not (= J (- 1073741823)))
                 (= U 0)
                 a!5
                 (not (and (= Q A1) (= P J)))
                 a!2
                 (not (and (= N Q) (= M P)))
                 (not (and (= L M) (= K N)))))
        (a!7 (or (not (= (select D T) 14))
                 (not (Proc12 A1 E D Z Y G X U I H))
                 (not (and (= Q H) (= P I)))
                 a!2
                 (not (and (= N Q) (= M P)))
                 (not (and (= L M) (= K N)))))
        (a!12 (or (= U 0)
                  a!5
                  (not (Proc10 A1 E D Z Y G W B))
                  (not (= A (- 1073741810)))
                  (not (and (= N A1) (= M A)))
                  (not (and (= L M) (= K N))))))
  (let ((a!8 (and a!4 (or (= (select D T) 4) (= T 0) (and a!6 a!7)))))
  (let ((a!9 (and a!3 (or (= (select D T) 3) (= T 0) a!8))))
  (let ((a!11 (and (or (not (Proc8 A1 E D Z Y G U T)) (= T 0) a!9) a!10)))
  (let ((a!13 (or (not G)
                  (not (Proc6 A1 E D Z Y G))
                  (= X 0)
                  (not (Proc7 A1 E D Z Y G W V))
                  (= W 0)
                  (and (or (= W 0) a!11) a!12))))
    (=> (not a!13) (Proc14 A1 E D Z Y G X U L K))))))))))
(assert (forall ((A Int)
         (B Int)
         (C Int)
         (D (Array Int Int))
         (E (Array Int Int))
         (F Int)
         (G Bool)
         (H Int)
         (I Int)
         (J Int)
         (K Int)
         (L Int)
         (M Int)
         (N Int))
  (let ((a!1 (and (not (<= J (+ 1 K))) (not (<= J N)))))
  (let ((a!2 (or (not G)
                 (not (Proc6 N E D M L G))
                 (not (= K N))
                 (not a!1)
                 (= I 0)
                 (not (Proc8 J E D M L G H F))
                 (not (= C (- 1073741808)))
                 (= H 0)
                 (not (Proc11 J E D M L G H 0))
                 (not (and (= B C) (= A J))))))
    (=> (not a!2) (Proc12 N E D M L G I H B A))))))
(assert (forall ((A Int)
         (B Int)
         (C Int)
         (D (Array Int Int))
         (E (Array Int Int))
         (F Int)
         (G Bool)
         (H Int)
         (I Int)
         (J Int)
         (K Int)
         (L Int)
         (M Int)
         (N Int))
  (let ((a!1 (not (and (not (= N 0)) (= M (+ 276 N)) (Proc15 L E D K J G M I))))
        (a!2 (not (and (not (= N 0)) (= F (+ 52 N)) (Proc1 L E D K J G F 0 0 C))))
        (a!4 (not (and (not (= N 0))
                       (= B (+ 164 N))
                       (Proc1 L E D K J G B 0 0 A)))))
  (let ((a!3 (and (or (= I 0) (not (= H I)))
                  (or (not (= I 0)) a!2 (not (= H I))))))
  (let ((a!5 (and (or (= 1 I) a!3) (or (not (= 1 I)) a!4 a!3))))
    (=> (not (or (not G) a!1 a!5)) (Proc10 L E D K J G N H)))))))
(assert (forall ((A Int)
         (B Int)
         (C Int)
         (D (Array Int Int))
         (E (Array Int Int))
         (F Int)
         (G Bool)
         (H Int)
         (I Int)
         (J Int)
         (K Int))
  (let ((a!1 (not (and (not (= K 0)) (= J (+ 276 K)) (Proc16 I E D H F G J C))))
        (a!2 (not (and (not (= K 0)) (= A (+ 164 K)) (Proc0 I E D H F G A)))))
  (let ((a!3 (and (or (= 2 C) (not (= B C)))
                  (or (not (= 2 C)) a!2 (not (= B C))))))
    (=> (not (or (not G) a!1 a!3)) (Proc7 I E D H F G K B))))))
(assert (forall ((A Int)
         (B Int)
         (C Int)
         (D (Array Int Int))
         (E (Array Int Int))
         (F Int)
         (G Bool)
         (H Int)
         (I Int)
         (J Int)
         (K Int)
         (L Int)
         (M Int)
         (N Int)
         (O Int)
         (P Int)
         (Q Int)
         (R Int))
  (let ((a!1 (and (not (<= P (+ 4 R))) (not (<= P Q))))
        (a!2 (and (not (<= N (+ 1 O))) (not (<= N P))))
        (a!3 (not (and (not (= J 0)) (= I (+ 48 J)) (Proc18 N E D M L G I R))))
        (a!4 (not (and (not (= J 0)) (= H (+ 48 J)) (Proc19 N E D M L G H F)))))
  (let ((a!5 (or (not G)
                 (not (= R Q))
                 (not a!1)
                 (not (= O P))
                 (not a!2)
                 (not (Proc17 N E D M L G K))
                 a!3
                 a!4
                 (not (Proc10 N E D M L G J C))
                 (not (and (= B 259) (= A N))))))
    (=> (not a!5) (Proc13 Q E D M L G J K B A))))))
(assert (forall ((A Int)
         (B Int)
         (C Int)
         (D (Array Int Int))
         (E (Array Int Int))
         (F Int)
         (G Bool)
         (H Int)
         (I Int)
         (J Int)
         (K Int)
         (L Int))
  (let ((a!1 (and (not (<= H (+ 1 I))) (not (<= H L)))))
  (let ((a!2 (or (not G)
                 (not (Proc6 L E D K J G))
                 (not (= I L))
                 (not a!1)
                 (= F 0)
                 (not (Proc11 H E D K J G F 0))
                 (not (and (= C 0) (= B H))))))
    (=> (not a!2) (Proc9 L E D K J G A F C B))))))
(assert (forall ((A Int)
         (B Int)
         (C Int)
         (D (Array Int Int))
         (E (Array Int Int))
         (G Bool))
  (=> G (Proc20 C E D B A G))))
(assert (forall ((A Int)
         (B Int)
         (C Int)
         (D (Array Int Int))
         (E (Array Int Int))
         (G Bool))
  (=> G (Proc21 C E D B A G))))
(assert (forall ((A Int)
         (B Int)
         (C Int)
         (D (Array Int Int))
         (E (Array Int Int))
         (F Int)
         (G Bool)
         (H Int))
  (let ((a!1 (or (not G) (not (and (= H 0) (= F 0))))))
    (=> (not a!1) (Proc22 C E D B A G H F)))))
(assert (forall ((A Int)
         (B Int)
         (C Int)
         (D (Array Int Int))
         (E (Array Int Int))
         (F Int)
         (G Bool)
         (H Int)
         (I Int)
         (J Int)
         (K Int)
         (L Int)
         (M Int)
         (N Int)
         (O Int)
         (P Int)
         (Q Int)
         (R Int)
         (B1 Bool)
         (C1 Bool)
         (D1 Bool)
         (E1 Bool)
         (F1 (Array Int Int))
         (G1 (Array Int Int))
         (H1 (Array Int Int))
         (I1 (Array Int Int))
         (J1 Bool))
  (let ((a!1 (not (and (not (<= R 0)) (Proc23 R I1 H1 Q P J1 O))))
        (a!2 (not (and (= H J) (= F N) (= C K) D1 (= C1 E1) (= B L) B1))))
  (let ((a!3 (or (= K 0) (not (and (= J I) (not E1))) a!2))
        (a!4 (or (not (and (= K 0) (= G J1))) (not (and (= J A) (= E1 G))) a!2)))
  (let ((a!5 (and (or (= K 1) (and a!3 a!4)) (or (not (= K 1)) (and a!3 a!4)))))
  (let ((a!6 (not (or (not J1)
                      a!1
                      (not (Proc22 O I1 H1 Q P J1 N M))
                      (not (Proc21 O I1 H1 N M J1))
                      (not (Proc20 O I1 H1 N M J1))
                      (not (Proc24 O G1 H1 N M J1 F1 L K))
                      a!5))))
    (=> (and a!6 (= D1 (= E G1)) (= B1 (= D F1)))
        (Proc25 R I1 H1 Q P J1 H F C E C1 B D))))))))
(assert (forall ((A Int)
         (B Int)
         (C Int)
         (D (Array Int Int))
         (E (Array Int Int))
         (F Int)
         (G Bool))
  (let ((a!1 (not (or (not G) (not (= F 1))))))
    (=> a!1 (Proc26 C E D B A G F)))))
(assert (forall ((A Int)
         (B Int)
         (C Int)
         (D (Array Int Int))
         (E (Array Int Int))
         (F Int)
         (G Bool))
  (let ((a!1 (not (or (not G) (not (= F 0))))))
    (=> a!1 (Proc27 C E D B A G F)))))
(assert (forall ((A Int)
         (B Int)
         (C Int)
         (D (Array Int Int))
         (E (Array Int Int))
         (F Int)
         (G Bool))
  (let ((a!1 (not (or (not G) (not (= F 1))))))
    (=> a!1 (Proc28 C E D B A G F)))))
(assert (forall ((A Int)
         (B Int)
         (C Int)
         (D (Array Int Int))
         (E (Array Int Int))
         (F Int)
         (G Bool))
  (let ((a!1 (not (or (not G) (not (= F 0))))))
    (=> a!1 (Proc29 C E D B A G F)))))
(assert (forall ((A Int)
         (B Int)
         (C Int)
         (D (Array Int Int))
         (E (Array Int Int))
         (F Int)
         (G Bool))
  (let ((a!1 (not (or (not G) (not (= F 1))))))
    (=> a!1 (Proc30 C E D B A G F)))))
(assert (forall ((A Int)
         (B Int)
         (C Int)
         (D (Array Int Int))
         (E (Array Int Int))
         (F Int)
         (G Bool))
  (let ((a!1 (not (or (not G) (not (= F 0))))))
    (=> a!1 (Proc31 C E D B A G F)))))
(assert (forall ((A Int)
         (B Int)
         (C Int)
         (D (Array Int Int))
         (E (Array Int Int))
         (F Int)
         (G Bool))
  (let ((a!1 (not (or (not G) (not (= F 1))))))
    (=> a!1 (Proc32 C E D B A G F)))))
(assert (forall ((A Int)
         (B Int)
         (C Int)
         (D (Array Int Int))
         (E (Array Int Int))
         (F Int)
         (G Bool))
  (let ((a!1 (not (or (not G) (not (= F 1))))))
    (=> a!1 (Proc33 C E D B A G F)))))
(assert (forall ((A Int)
         (B Int)
         (C Int)
         (D (Array Int Int))
         (E (Array Int Int))
         (F Int)
         (G Bool))
  (let ((a!1 (not (or (not G) (not (= F 0))))))
    (=> a!1 (Proc34 C E D B A G F)))))
(assert (forall ((A Int)
         (B Int)
         (C Int)
         (D (Array Int Int))
         (E (Array Int Int))
         (F Int)
         (G Bool))
  (let ((a!1 (not (or (not G) (not (= F 0))))))
    (=> a!1 (Proc35 C E D B A G F)))))
(assert (forall ((A Int)
         (B Int)
         (C Int)
         (D (Array Int Int))
         (E (Array Int Int))
         (F Int)
         (G Bool))
  (let ((a!1 (not (or (not G) (not (= F 0))))))
    (=> a!1 (Proc36 C E D B A G F)))))
(assert (forall ((A Int)
         (B Int)
         (C Int)
         (D (Array Int Int))
         (E (Array Int Int))
         (F Int)
         (G Bool)
         (H Int))
  (let ((a!1 (or (not G) (not (= H (- 1073741823))) (not (= F H)))))
    (=> (not a!1) (Proc37 C E D B A G F)))))
(assert (forall ((A Int)
         (B Int)
         (C Int)
         (D (Array Int Int))
         (E (Array Int Int))
         (F Int)
         (G Bool)
         (H Int)
         (I Int))
  (let ((a!1 (not (or (not G) (= I 0) (not (= H F))))))
    (=> a!1 (Proc15 C E D B A G I H)))))
(assert (forall ((A Int)
         (B Int)
         (C Int)
         (D (Array Int Int))
         (E (Array Int Int))
         (F Int)
         (G Bool)
         (H Int)
         (I Int))
  (let ((a!1 (not (or (not G) (= I 0) (not (= H F))))))
    (=> a!1 (Proc16 C E D B A G I H)))))
(assert (forall ((A Int)
         (B Int)
         (C Int)
         (D (Array Int Int))
         (E (Array Int Int))
         (F Int)
         (G Bool)
         (H Int))
  (=> G (Proc11 H E D F C G B A))))
(assert (forall ((A Int)
         (B Int)
         (C Int)
         (D (Array Int Int))
         (E (Array Int Int))
         (F Int)
         (G Bool))
  (let ((a!1 (not (or (not G) (not (= F 1))))))
    (=> a!1 (Proc38 C E D B A G F)))))
(assert (forall ((A Int)
         (B Int)
         (C Int)
         (D (Array Int Int))
         (E (Array Int Int))
         (F Int)
         (G Bool)
         (H Int)
         (I Int))
  (let ((a!1 (and (not (= I 0)) (= H (select E (+ 164 I))))))
  (let ((a!2 (not (or (not G) (not a!1) (not (= F H))))))
    (=> a!2 (Proc8 C E D B A G I F))))))
(assert (forall ((A Int)
         (B Int)
         (C Int)
         (D (Array Int Int))
         (E (Array Int Int))
         (F Int)
         (G Bool))
  (=> G (Proc17 F E D C B G A))))
(assert (forall ((A Int)
         (B Int)
         (C Int)
         (D (Array Int Int))
         (E (Array Int Int))
         (F Int)
         (G Bool)
         (H Int))
  (=> (not (or (not G) (= H 0))) (Proc18 F E D C B G A H))))
(assert (forall ((A Int)
         (B Int)
         (C Int)
         (D (Array Int Int))
         (E (Array Int Int))
         (F Int)
         (G Bool)
         (H Int))
  (=> G (Proc19 H E D F C G B A))))
(assert (forall ((A Int)
         (B Int)
         (C Int)
         (D (Array Int Int))
         (E (Array Int Int))
         (F Int)
         (G Bool)
         (H Int)
         (I Int)
         (J Int)
         (K Int)
         (L Int)
         (M Int)
         (N Int)
         (O Int)
         (P Int)
         (Q Int)
         (R Int)
         (S Int)
         (T Int)
         (U Int)
         (V Int)
         (W Int)
         (X Int)
         (B1 Bool)
         (C1 Bool)
         (D1 Bool)
         (E1 Bool)
         (F1 (Array Int Int))
         (G1 (Array Int Int))
         (H1 (Array Int Int))
         (I1 (Array Int Int))
         (J1 Bool)
         (K1 Bool)
         (L1 Bool)
         (M1 (Array Int Int))
         (N1 Bool))
  (let ((a!1 (and (not (= X 0)) (= W (select M1 (+ 164 X)))))
        (a!2 (not (and (not (= W 0)) L1)))
        (a!3 (not (Proc41 O M1 G1 U T N1 P X N M)))
        (a!4 (not (and (= J L) J1 (= I N) (= H M))))
        (a!8 (not (and (not (= W 0)) E1)))
        (a!10 (not (and (not (= W 0)) C1))))
  (let ((a!5 (or (not (and (= M 1) (= L K))) a!4)))
  (let ((a!6 (and a!5 (or (= M 1) (= X 0) (not (= L P)) a!4))))
  (let ((a!7 (or a!2
                 (not (Proc14 V M1 H1 U T N1 S X R Q))
                 (not (= P R))
                 (not (and K1 (= O Q)))
                 a!3
                 a!6))
        (a!9 (or a!8
                 (not (Proc37 V M1 F1 U T N1 F))
                 (not (= P F))
                 (not (and D1 (= O V)))
                 a!3
                 a!6))
        (a!11 (or a!10
                  (not (Proc37 V M1 E U T N1 C))
                  (not (= P C))
                  (not (and B1 (= O V)))
                  a!3
                  a!6))
        (a!12 (or (not (Proc37 V M1 I1 U T N1 B))
                  (not (= P B))
                  (not (and G (= O V)))
                  a!3
                  a!6))
        (a!13 (or (not (Proc37 V M1 I1 U T N1 A))
                  (not (= P A))
                  (not (and G (= O V)))
                  a!3
                  a!6)))
  (let ((a!14 (not (or (not N1)
                       (not a!1)
                       (= X 0)
                       (not (Proc39 V M1 I1 U T N1 X))
                       (= W 0)
                       (not (Proc40 V M1 I1 U T N1))
                       (and a!7 a!9 a!11 a!12 a!13)))))
  (let ((a!15 (and a!14
                   (= L1 (= H1 (store I1 W 4)))
                   (= K1 (= G1 H1))
                   (= J1 (= D G1))
                   (= E1 (= F1 (store I1 W 5)))
                   (= D1 (= G1 F1))
                   (= C1 (= E (store I1 W 6)))
                   (= B1 (= G1 E))
                   (= G (= G1 I1)))))
    (=> a!15 (Proc42 V M1 I1 U T N1 S X J D I H))))))))))
(assert (forall ((A Int)
         (B Int)
         (C Int)
         (D (Array Int Int))
         (E (Array Int Int))
         (F Int)
         (G Bool))
  (=> (not (or (not G) (= F 0))) (Proc39 C E D B A G F))))
(assert (forall ((A Int)
         (B Int)
         (C Int)
         (D (Array Int Int))
         (E (Array Int Int))
         (G Bool))
  (=> G (Proc6 C E D B A G))))
(assert (forall ((A Int)
         (B Int)
         (C Int)
         (D (Array Int Int))
         (E (Array Int Int))
         (F Int)
         (G Bool)
         (H Int)
         (I Int)
         (J Int)
         (K Int)
         (L Int)
         (M Int)
         (N Int)
         (O Int)
         (P Int)
         (Q Int)
         (R Int)
         (S Int)
         (T Int)
         (U Int)
         (V Int)
         (W Int)
         (X Int)
         (Y Int)
         (Z Int)
         (A1 Int)
         (B1 Bool)
         (C1 Bool)
         (D1 Bool)
         (F1 (Array Int Int))
         (G1 (Array Int Int))
         (H1 (Array Int Int)))
  (let ((a!1 (or (not (= L Y))
                 (not (and C1 (= K A1)))
                 (not (and B1 (= J K) (= I L)))))
        (a!2 (or (not (and (= A 1) (= L A) G (= K B)))
                 (not (and B1 (= J K) (= I L)))))
        (a!3 (not (and (not (= A 1)) (= L A) G (= K B))))
        (a!5 (or (not (and (= X 0) (= L Y) C1 (= K A1)))
                 (not (and B1 (= J K) (= I L))))))
  (let ((a!4 (or a!3 (not (and B1 (= J K) (= I L))))))
  (let ((a!6 (and a!1
                  (or (= X 0)
                      (not (Proc43 A1 H1 G1 Z Y D1))
                      (not (Proc42 A1 H1 G1 Z Y D1 H F C F1 B A))
                      (and a!2 a!4))
                  a!5)))
  (let ((a!7 (not (or (not D1)
                      (not (Proc28 A1 H1 G1 Z Y D1 X))
                      (not (Proc35 A1 H1 G1 Z Y D1 W))
                      (not (Proc29 A1 H1 G1 Z Y D1 V))
                      (not (Proc34 A1 H1 G1 Z Y D1 U))
                      (not (Proc27 A1 H1 G1 Z Y D1 T))
                      (not (Proc31 A1 H1 G1 Z Y D1 S))
                      (not (Proc38 A1 H1 G1 Z Y D1 R))
                      (not (Proc36 A1 H1 G1 Z Y D1 Q))
                      (not (Proc26 A1 H1 G1 Z Y D1 P))
                      (not (Proc32 A1 H1 G1 Z Y D1 O))
                      (not (Proc33 A1 H1 G1 Z Y D1 N))
                      (not (Proc30 A1 H1 G1 Z Y D1 M))
                      a!6))))
    (=> (and a!7 (= C1 (= E G1)) (= B1 (= D E)) (= G (= E F1)))
        (Proc24 A1 H1 G1 Z Y D1 D J I))))))))
(assert (forall ((A Int)
         (B Int)
         (C Int)
         (D (Array Int Int))
         (E (Array Int Int))
         (G Bool))
  (=> G (Proc40 C E D B A G))))
(assert (forall ((A Int)
         (B Int)
         (C Int)
         (D (Array Int Int))
         (E (Array Int Int))
         (F Int)
         (G Bool)
         (H Int)
         (I Int)
         (J Int)
         (K Int)
         (L Int)
         (M Int)
         (N Int))
  (let ((a!1 (and (not (<= L (+ 1 N))) (not (<= L M))))
        (a!2 (or (not (= H 1)) (not (and (= F I) (= C H)))))
        (a!3 (or (= H 1) (not (and (= F I) (= C H))))))
  (let ((a!4 (not (or (not G)
                      (not (= N M))
                      (not a!1)
                      (not (Proc5 L E D K J G N I H))
                      (and a!2 a!3)))))
    (=> a!4 (Proc41 M E D K J G B A F C))))))
(assert (forall ((A Int)
         (B Int)
         (C Int)
         (D (Array Int Int))
         (E (Array Int Int))
         (G Bool))
  (=> G (Proc43 C E D B A G))))
(assert (forall ((A Int)
         (B Int)
         (C Int)
         (D (Array Int Int))
         (E (Array Int Int))
         (F Int)
         (G Bool)
         (H Int)
         (I Int)
         (J Int)
         (K Int)
         (L Int)
         (M Int)
         (N Int)
         (O Int)
         (P Int)
         (Q Int)
         (R Int)
         (S Int)
         (T Int)
         (U Int)
         (V Int)
         (W Int)
         (X Int)
         (Y Int)
         (Z Int)
         (A1 Int)
         (O1 Int)
         (P1 Int)
         (Q1 Int)
         (R1 Int)
         (S1 Int)
         (T1 Int)
         (U1 Int)
         (V1 Int)
         (W1 Int)
         (X1 Int)
         (Y1 Int)
         (Z1 Int)
         (A2 Int)
         (B2 Int)
         (C2 Int)
         (D2 Int)
         (E2 Int)
         (F2 Int)
         (G2 Int)
         (H2 Int)
         (I2 Int)
         (J2 Int)
         (K2 Int)
         (L2 Int)
         (M2 Int)
         (N2 Int)
         (O2 Int)
         (P2 Int)
         (Q2 Int)
         (R2 Int)
         (S2 Int)
         (T2 Int)
         (U2 Int)
         (V2 Int)
         (W2 Int)
         (X2 Int)
         (Y2 Int)
         (Z2 Int)
         (A3 Int)
         (B3 Int)
         (C3 Int)
         (D3 Int))
  (let ((a!1 (and (not (<= B3 (+ 16 D3)))
                  (not (<= B3 C3))
                  (= A3 B3)
                  (not (<= Z2 (+ 16 A3)))))
        (a!2 (and (not (<= Z2 B3))
                  (= Y2 Z2)
                  (not (<= X2 (+ 16 Y2)))
                  (not (<= X2 Z2))
                  (= W2 X2)
                  (not (<= V2 (+ 16 W2)))
                  (not (<= V2 X2))
                  (= U2 V2)))
        (a!3 (and (not (<= T2 (+ 16 U2)))
                  (not (<= T2 V2))
                  (= S2 T2)
                  (not (<= R2 (+ 16 S2)))
                  (not (<= R2 T2))
                  (= Q2 R2)
                  (not (<= P2 (+ 16 Q2)))
                  (not (<= P2 R2))
                  (= O2 P2)
                  (not (<= N2 (+ 16 O2)))
                  (not (<= N2 P2))
                  (= M2 N2)
                  (not (<= L2 (+ 4 M2)))
                  (not (<= L2 N2))
                  (= K2 L2)
                  (not (<= J2 (+ 332 K2)))))
        (a!4 (and (not (<= J2 L2))
                  (= I2 J2)
                  (not (<= H2 (+ 4 I2)))
                  (not (<= H2 J2))
                  (= G2 H2)
                  (not (<= F2 (+ 536 G2)))
                  (not (<= F2 H2))
                  (= E2 F2)
                  (not (<= D2 (+ 240 E2)))
                  (not (<= D2 F2))
                  (= C2 D2)
                  (not (<= B2 (+ 240 C2)))
                  (not (<= B2 D2))
                  (= A2 B2)
                  (not (<= Z1 (+ 240 A2)))
                  (not (<= Z1 B2))
                  (= Y1 Z1)
                  (not (<= X1 (+ 4 Y1)))
                  (not (<= X1 Z1))
                  (= W1 X1)
                  (not (<= V1 (+ 536 W1)))
                  (not (<= V1 X1))
                  (= U1 V1)
                  (not (<= T1 (+ 332 U1)))
                  (not (<= T1 V1))
                  (= S1 T1)
                  (not (<= R1 (+ 240 S1)))
                  (not (<= R1 T1))
                  (= Q1 R1)
                  (not (<= P1 (+ 240 Q1)))
                  (not (<= P1 R1))
                  (= O1 P1)
                  (not (<= A1 (+ 332 O1)))
                  (not (<= A1 P1))
                  (= Z A1)
                  (not (<= Y (+ 4 Z)))
                  (not (<= Y A1))
                  (= X Y)
                  (not (<= W (+ 240 X)))
                  (not (<= W Y))
                  (= V W)
                  (not (<= U (+ 240 V)))
                  (not (<= U W))
                  (= T U)
                  (not (<= S (+ 240 T)))
                  (not (<= S U))
                  (= R S)
                  (not (<= Q (+ 240 R)))
                  (not (<= Q S))
                  (= P Q)
                  (not (<= O (+ 240 P)))
                  (not (<= O Q))
                  (= N O)
                  (not (<= M (+ 40 N)))
                  (not (<= M O))
                  (= L M)
                  (not (<= K (+ 332 L)))
                  (not (<= K M))
                  (= J K)
                  (not (<= I (+ 4 J)))
                  (not (<= I K))
                  (= H I)
                  (not (<= F (+ 40 H)))
                  (not (<= F I)))))
  (let ((a!5 (not (or (not G)
                      (not (= D3 C3))
                      (not a!1)
                      (not a!2)
                      (not a!3)
                      (not a!4)
                      (not (= C F))))))
    (=> a!5 (Proc23 C3 E D B A G C))))))
(assert (forall ((A Int)
         (B Int)
         (C Int)
         (D (Array Int Int))
         (E (Array Int Int))
         (F Int)
         (G Bool)
         (H Int)
         (I Int)
         (J Int)
         (K Int)
         (L Int)
         (M Int)
         (N Int)
         (B1 Bool)
         (C1 Bool)
         (F1 (Array Int Int))
         (G1 (Array Int Int))
         (H1 (Array Int Int))
         (I1 (Array Int Int)))
  (let ((a!1 (or (not C1)
                 (not (and (Proc25 N I1 H1 M L true K J I G1 B1 H F1) (not B1))))))
    (=> (not a!1) (Proc44 N I1 H1 M L C1 F G C B E A D)))))
(assert (let ((a!1 (exists ((V0 Int)
                    (V1 (Array Int Int))
                    (V2 (Array Int Int))
                    (V3 Int)
                    (V4 Int)
                    (V5 Bool)
                    (V6 Int)
                    (V7 Bool)
                    (V8 Int)
                    (V9 Int)
                    (V10 (Array Int Int))
                    (V11 Int)
                    (V12 (Array Int Int)))
             (not (=> (and (Proc44 V0 V1 V2 V3 V4 V5 V6 V7 V8 V9 V10 V11 V12)
                           (not false))
                      false)))))
  (not a!1)))

(check-sat)
